3 4 6 
3 2 1 5 1 18 2 18 3 19 5 15 6 16 2 2 1 25 6 26 2 4 1 1 40 2 5 1 30 2 30 3 33 4 31 6 28 2 4 4 1 152 4 163 5 153 6 160 3 3 1 161 3 167 6 149 
3 2 1 5 1 29 2 33 3 32 4 31 5 31 3 3 3 46 4 50 5 50 2 4 1 2 51 2 6 1 71 2 62 3 62 4 63 5 64 6 70 2 4 6 1 71 2 77 3 71 4 79 5 76 6 76 3 1 2 70 
3 2 1 2 3 58 6 53 2 4 1 59 2 66 3 63 5 60 2 2 6 1 69 2 76 3 70 4 69 5 69 6 75 3 6 1 73 2 84 3 75 4 85 5 74 6 73 2 4 2 3 88 6 87 3 2 1 97 6 98 
